p cnf 121 434
3 1 0
3 2 0
-1 -2 -3 0
4 5 -6 0
-4 -5 -6 0
4 -5 6 0
-4 5 6 0
-7 3 0
-7 6 0
-3 -6 7 0
11 -5 0
11 -10 0
5 10 -11 0
12 -9 0
12 -11 0
9 11 -12 0
12 6 -13 0
-12 -6 -13 0
12 -6 13 0
-12 6 13 0
4 -13 -14 0
-4 13 -14 0
4 13 14 0
-4 -13 14 0
-8 -14 -15 0
8 14 -15 0
-8 14 15 0
8 -14 15 0
10 -6 -17 0
-10 6 -17 0
10 6 17 0
-10 -6 17 0
16 -17 -18 0
-16 17 -18 0
16 17 18 0
-16 -17 18 0
-19 -15 0
-19 18 0
15 -18 19 0
19 -14 -20 0
-19 14 -20 0
19 14 20 0
-19 -14 20 0
-21 10 0
-21 -1 0
-10 1 21 0
-23 -21 0
-23 22 0
21 -22 23 0
23 -24 -25 0
-23 24 -25 0
23 24 25 0
-23 -24 25 0
-26 20 0
-26 -25 0
-20 25 26 0
-7 26 -27 0
7 -26 -27 0
-7 -26 27 0
7 26 27 0
-28 21 0
-28 20 0
-21 -20 28 0
-30 11 0
-30 29 0
-11 -29 30 0
31 30 0
31 10 0
-30 -10 -31 0
-6 32 0
6 32 0
32 -24 -33 0
-32 24 -33 0
32 24 33 0
-32 -24 33 0
34 -31 0
34 -33 0
31 33 -34 0
28 -34 -35 0
-28 34 -35 0
28 34 35 0
-28 -34 35 0
36 -10 0
36 6 0
10 -6 -36 0
37 36 0
37 24 0
-36 -24 -37 0
38 -37 0
38 4 0
37 -4 -38 0
-39 38 0
-39 -6 0
-38 6 39 0
-40 -37 0
-40 36 0
37 -36 40 0
43 42 0
43 -1 0
-42 1 -43 0
-41 -43 -44 0
41 43 -44 0
-41 43 44 0
41 -43 44 0
-45 44 0
-45 29 0
-44 -29 45 0
-40 45 -46 0
40 -45 -46 0
-40 -45 46 0
40 45 46 0
47 29 0
47 41 0
-29 -41 -47 0
46 47 -48 0
-46 -47 -48 0
46 -47 48 0
-46 47 48 0
39 48 -49 0
-39 -48 -49 0
39 -48 49 0
-39 48 49 0
50 -35 0
50 49 0
35 -49 -50 0
-27 50 -51 0
27 -50 -51 0
-27 -50 51 0
27 50 51 0
-10 -11 -52 0
10 11 -52 0
-10 11 52 0
10 -11 52 0
53 52 0
53 33 0
-52 -33 -53 0
-54 -3 0
-54 -44 0
3 44 54 0
-9 -54 -55 0
9 54 -55 0
-9 54 55 0
9 -54 55 0
-56 8 0
-56 -55 0
-8 55 56 0
-57 -53 0
-57 56 0
53 -56 57 0
58 13 0
58 55 0
-13 -55 -58 0
-59 58 0
-59 44 0
-58 -44 59 0
-60 -57 0
-60 59 0
57 -59 60 0
-61 -41 0
-61 5 0
41 -5 61 0
61 -43 -62 0
-61 43 -62 0
61 43 62 0
-61 -43 62 0
-63 60 0
-63 -62 0
-60 62 63 0
-24 17 -64 0
24 -17 -64 0
-24 -17 64 0
24 17 64 0
65 -24 0
65 37 0
24 -37 -65 0
-66 64 0
-66 65 0
-64 -65 66 0
67 63 0
67 -66 0
-63 66 -67 0
68 51 0
68 -67 0
-51 67 -68 0
69 -14 0
69 -1 0
14 1 -69 0
-11 37 -70 0
11 -37 -70 0
-11 -37 70 0
11 37 70 0
44 -70 -71 0
-44 70 -71 0
44 70 71 0
-44 -70 71 0
-72 -71 0
-72 22 0
71 -22 72 0
8 -9 -73 0
-8 9 -73 0
8 9 73 0
-8 -9 73 0
74 -73 0
74 -36 0
73 36 -74 0
74 71 -75 0
-74 -71 -75 0
74 -71 75 0
-74 71 75 0
76 72 0
76 -75 0
-72 75 -76 0
-77 -25 0
-77 -76 0
25 76 77 0
-69 -77 -78 0
69 77 -78 0
-69 77 78 0
69 -77 78 0
-79 10 0
-79 -5 0
-10 5 79 0
-42 40 -80 0
42 -40 -80 0
-42 -40 80 0
42 40 80 0
81 -8 0
81 -80 0
8 80 -81 0
81 -82 -83 0
-81 82 -83 0
81 82 83 0
-81 -82 83 0
-84 79 0
-84 83 0
-79 -83 84 0
-85 -78 0
-85 -84 0
78 84 85 0
-29 16 -86 0
29 -16 -86 0
-29 -16 86 0
29 16 86 0
16 86 -87 0
-16 -86 -87 0
16 -86 87 0
-16 86 87 0
-88 -12 0
-88 -1 0
12 1 88 0
89 -88 0
89 8 0
88 -8 -89 0
87 -89 -90 0
-87 89 -90 0
87 89 90 0
-87 -89 90 0
91 45 0
91 -12 0
-45 12 -91 0
-44 91 -92 0
44 -91 -92 0
-44 -91 92 0
44 91 92 0
92 6 -93 0
-92 -6 -93 0
92 -6 93 0
-92 6 93 0
-94 52 0
-94 -1 0
-52 1 94 0
2 81 -95 0
-2 -81 -95 0
2 -81 95 0
-2 81 95 0
42 -41 -96 0
-42 41 -96 0
42 41 96 0
-42 -41 96 0
97 96 0
97 80 0
-96 -80 -97 0
98 -95 0
98 97 0
95 -97 -98 0
-99 94 0
-99 98 0
-94 -98 99 0
-16 -92 -100 0
16 92 -100 0
-16 92 100 0
16 -92 100 0
-101 -99 0
-101 100 0
99 -100 101 0
102 -93 0
102 101 0
93 -101 -102 0
-103 52 0
-103 81 0
-52 -81 103 0
-104 -36 0
-104 -41 0
36 41 104 0
105 -103 0
105 104 0
103 -104 -105 0
106 102 0
106 105 0
-102 -105 -106 0
-90 -106 -107 0
90 106 -107 0
-90 106 107 0
90 -106 107 0
-108 -14 0
-108 -43 0
14 43 108 0
-109 -37 0
-109 -2 0
37 2 109 0
-109 -55 -110 0
109 55 -110 0
-109 55 110 0
109 -55 110 0
111 9 0
111 -110 0
-9 110 -111 0
108 -111 -112 0
-108 111 -112 0
108 111 112 0
-108 -111 112 0
-107 -112 -113 0
107 112 -113 0
-107 112 113 0
107 -112 113 0
-85 113 -114 0
85 -113 -114 0
-85 -113 114 0
85 113 114 0
115 11 0
115 -24 0
-11 24 -115 0
-116 -114 0
-116 -115 0
114 115 116 0
117 -43 0
117 44 0
43 -44 -117 0
-118 15 0
-118 -72 0
-15 72 118 0
-119 -117 0
-119 -118 0
117 118 119 0
-116 119 -120 0
116 -119 -120 0
-116 -119 120 0
116 119 120 0
121 68 0
121 120 0
-68 -120 -121 0
-107 -116 5 0
62 66 11 -9 5 0
-23 -1 0
-23 49 47 -53 0
29 -26 18 -120 61 -90 0
-2 -111 -80 44 31 0
-53 -86 34 107 0
-8 -7 117 0
-10 71 0
102 -21 -81 88 0
-26 85 29 35 0
-29 -71 58 -117 -95 -69 0
-50 118 39 0
55 -91 8 44 77 0
62 83 -11 -26 -113 103 0
31 84 0
2 0
-70 -65 -97 -34 0
-31 92 -6 106 -66 0
65 117 2 -3 -58 -52 0
97 -45 -98 31 -118 12 0
-14 -7 -85 -12 -109 -8 0
11 37 -76 0
-102 -10 80 85 -27 0
30 -27 -35 0
119 89 -79 59 0
46 35 36 0
116 68 0
-108 83 98 51 94 -52 0
-115 -35 0
89 -12 42 0
-9 1 65 87 19 -31 0
-106 87 104 0
15 -9 64 0
-75 33 8 22 87 0
-73 -113 82 63 -117 -38 0
79 -65 0
-16 23 98 -113 27 37 0
121 -107 -47 -64 1 0
111 43 45 96 77 -113 0
-65 18 81 78 76 0
-4 40 12 35 0
-9 -37 -52 -83 58 0
-100 20 -48 -72 -113 0
39 6 -55 65 78 -82 0
-94 112 25 -35 -101 -109 0
-117 -32 7 3 0
-89 116 -54 14 -82 0
-23 113 73 118 0
87 35 68 0
-26 36 -111 5 0
-36 80 44 -19 0
-30 47 -70 -89 44 0
-18 -62 -33 110 68 -119 0
90 88 0
-34 -117 -21 87 9 0
33 15 -104 22 36 0
-9 -29 -62 46 -65 -36 0
-99 -69 90 -2 70 72 0
-99 88 0
-30 25 32 9 96 0
-78 -91 -31 0
20 -38 0
-67 40 -32 105 0
-117 -41 17 -87 0
104 -116 -9 96 23 -24 0
8 114 57 0
-64 8 0
18 109 114 86 0
2 87 0
103 -95 -45 0
-66 24 -75 0
121 0
